Nb-Mo-Ta-W alloy
1.0
6.58 0.0 0.0
0.0 6.58 0.0
0.0 0.0 6.58
Nb Mo Ta W
4 4 2 6
Direct
0.0 0.5 0.0
0.25 0.75 0.25
0.25 0.25 0.25
0.5 0.5 0.5
0.75 0.75 0.25
0.25 0.25 0.75
0.5 0.0 0.5
0.0 0.0 0.0
0.75 0.25 0.75
0.0 0.5 0.5
0.0 0.0 0.5
0.5 0.0 0.0
0.25 0.75 0.75
0.75 0.25 0.25
0.75 0.75 0.75
0.5 0.5 0.0
