Nb-Mo-Ta-W alloy
1.0
6.58 0.0 0.0
0.0 6.58 0.0
0.0 0.0 6.58
Nb Mo Ta W
3 4 5 4
Direct
0.75 0.75 0.75
0.25 0.25 0.25
0.5 0.5 0.5
0.25 0.75 0.75
0.75 0.25 0.75
0.0 0.0 0.0
0.25 0.25 0.75
0.0 0.0 0.5
0.0 0.5 0.5
0.0 0.5 0.0
0.5 0.0 0.5
0.5 0.0 0.0
0.5 0.5 0.0
0.75 0.25 0.25
0.25 0.75 0.25
0.75 0.75 0.25
